objective value:                 0.000860285667000179
x_1_2                                               1 	(obj:0)
x_2_3                                               1 	(obj:0)
x_3_2                                               1 	(obj:0)
x_4_1                                               1 	(obj:0)
x_5_1                                               1 	(obj:0)
x_6_3                                               1 	(obj:0)
x_7_3                                               1 	(obj:0)
x_8_2                                               1 	(obj:0)
x_9_1                                               1 	(obj:0)
x_10_1                                              1 	(obj:0)
x_11_2                                              1 	(obj:0)
x_12_2                                              1 	(obj:0)
x_13_3                                              1 	(obj:0)
x_14_3                                              1 	(obj:0)
x_15_1                                              1 	(obj:0)
x_16_2                                              1 	(obj:0)
x_17_3                                              1 	(obj:0)
x_18_3                                              1 	(obj:0)
x_19_2                                              1 	(obj:0)
x_20_2                                              1 	(obj:0)
ind_1                                               1 	(obj:0)
abs_1_3                                             1 	(obj:0)
ind_2                                               1 	(obj:0)
abs_2_1                                             1 	(obj:0)
ind_3                                               1 	(obj:0)
abs_3_2                                             1 	(obj:0)
epsI                             0.000860285667000179 	(obj:1)
prodt_x_19_2_t_x_20_2_coh_2                         1 	(obj:0)
prodt_x_1_2_t_x_2_1_more_coh_1           1.7109523718 	(obj:0)
prodt_x_4_1_t_x_5_1_more_coh_1           2.9714721591 	(obj:0)
prodt_x_5_1_t_x_6_1_more_coh_1           2.6893373693 	(obj:0)
prodt_x_9_1_t_x_14_1_more_coh_1          2.3001064381 	(obj:0)
prodt_x_10_1_t_x_11_1_more_coh_1         1.8668760899 	(obj:0)
prodt_x_1_2_t_x_2_2_more_coh_2       3.85809952799999 	(obj:0)
prodt_x_3_2_t_x_4_2_more_coh_2           3.1519240512 	(obj:0)
prodt_x_8_2_t_x_11_2_more_coh_2          3.4043322214 	(obj:0)
prodt_x_11_2_t_x_12_2_more_coh_2         2.3842955234 	(obj:0)
prodt_x_12_2_t_x_13_2_more_coh_2         2.4428020605 	(obj:0)
prodt_x_16_2_t_x_17_2_more_coh_2         1.0735618651 	(obj:0)
prodt_x_2_3_t_x_3_3_more_coh_3           6.0724349071 	(obj:0)
prodt_x_6_3_t_x_7_3_more_coh_3           4.6475309261 	(obj:0)
prodt_x_7_3_t_x_9_3_more_coh_3           3.7440306302 	(obj:0)
prodt_x_13_3_t_x_15_3_more_coh_3          3.549413639 	(obj:0)
prodt_x_14_3_t_x_15_3_more_coh_3         0.7592057671 	(obj:0)
prodt_x_17_3_t_x_18_3_more_coh_3         1.1731006056 	(obj:0)
prodt_x_1_2_t_x_2_2_more_irrev1_2_1    -1.26358187480603 	(obj:0)
prodt_x_3_2_t_x_4_1_more_irrev1_2_1   -0.336396636381514 	(obj:0)
prodt_x_4_1_t_x_5_2_more_irrev1_2_1    -1.11722254000013 	(obj:0)
prodt_x_5_1_t_x_10_2_more_irrev1_2_1    -2.91520017016365 	(obj:0)
prodt_x_8_2_t_x_9_1_more_irrev1_2_1    -1.75515022497613 	(obj:0)
prodt_x_9_1_t_x_11_2_more_irrev1_2_1    -2.81974408259048 	(obj:0)
prodt_x_10_1_t_x_12_2_more_irrev1_2_1   -0.788796176744817 	(obj:0)
prodt_x_11_2_t_x_13_1_more_irrev1_2_1   -0.188415051501644 	(obj:0)
prodt_x_12_2_t_x_13_1_more_irrev1_2_1   -0.748911100000001 	(obj:0)
prodt_x_15_1_t_x_20_2_more_irrev1_2_1    -1.67803279422955 	(obj:0)
prodt_x_1_2_t_x_2_2_more_irrev2_2_1     1.26358187480603 	(obj:0)
prodt_x_3_2_t_x_4_1_more_irrev2_2_1    0.336396636381514 	(obj:0)
prodt_x_4_1_t_x_5_2_more_irrev2_2_1           1.11722254 	(obj:0)
prodt_x_5_1_t_x_10_2_more_irrev2_2_1     2.91520017016365 	(obj:0)
prodt_x_8_2_t_x_9_1_more_irrev2_2_1     1.75515022497614 	(obj:0)
prodt_x_9_1_t_x_11_2_more_irrev2_2_1     2.81974408259048 	(obj:0)
prodt_x_10_1_t_x_12_2_more_irrev2_2_1    0.788796176744817 	(obj:0)
prodt_x_11_2_t_x_13_1_more_irrev2_2_1    0.188415051501644 	(obj:0)
prodt_x_12_2_t_x_13_1_more_irrev2_2_1    0.748911100000001 	(obj:0)
prodt_x_15_1_t_x_20_2_more_irrev2_2_1     1.67803279422955 	(obj:0)
prodt_x_1_2_t_x_2_3_more_irrev1_3_1     1.26822016849129 	(obj:0)
prodt_x_2_3_t_x_3_1_more_irrev1_3_1     2.43942877544412 	(obj:0)
prodt_x_4_1_t_x_5_3_more_irrev1_3_1            2.2234135 	(obj:0)
prodt_x_5_1_t_x_10_3_more_irrev1_3_1    0.680342376524713 	(obj:0)
prodt_x_6_3_t_x_7_1_more_irrev1_3_1     1.07755840907502 	(obj:0)
prodt_x_7_3_t_x_10_1_more_irrev1_3_1     1.58263315000001 	(obj:0)
prodt_x_9_1_t_x_11_3_more_irrev1_3_1    0.774430916405891 	(obj:0)
prodt_x_10_1_t_x_12_3_more_irrev1_3_1     2.42523935435666 	(obj:0)
prodt_x_13_3_t_x_17_1_more_irrev1_3_1                    1 	(obj:0)
prodt_x_14_3_t_x_15_1_more_irrev1_3_1   0.0395733849594052 	(obj:0)
prodt_x_15_1_t_x_20_3_more_irrev1_3_1     1.42971627292903 	(obj:0)
prodt_x_1_2_t_x_2_3_more_irrev2_3_1    -1.26822016849129 	(obj:0)
prodt_x_2_3_t_x_3_1_more_irrev2_3_1    -2.43942877544412 	(obj:0)
prodt_x_4_1_t_x_5_3_more_irrev2_3_1           -2.2234135 	(obj:0)
prodt_x_5_1_t_x_10_3_more_irrev2_3_1   -0.680342376524713 	(obj:0)
prodt_x_6_3_t_x_7_1_more_irrev2_3_1    -1.07755840907502 	(obj:0)
prodt_x_7_3_t_x_10_1_more_irrev2_3_1    -1.58263315000001 	(obj:0)
prodt_x_9_1_t_x_11_3_more_irrev2_3_1   -0.774430916405891 	(obj:0)
prodt_x_10_1_t_x_12_3_more_irrev2_3_1    -2.42523935435666 	(obj:0)
prodt_x_13_3_t_x_17_1_more_irrev2_3_1                   -1 	(obj:0)
prodt_x_14_3_t_x_15_1_more_irrev2_3_1  -0.0395733849594052 	(obj:0)
prodt_x_15_1_t_x_20_3_more_irrev2_3_1    -1.42971627292903 	(obj:0)
prodt_x_1_2_t_x_2_3_more_irrev1_3_2    -1.26822016849129 	(obj:0)
prodt_x_2_3_t_x_3_2_more_irrev1_3_2   -0.664996743761537 	(obj:0)
prodt_x_3_2_t_x_4_3_more_irrev1_3_2    -3.53168771815403 	(obj:0)
prodt_x_6_3_t_x_7_2_more_irrev1_3_2    -3.75399620626488 	(obj:0)
prodt_x_7_3_t_x_10_2_more_irrev1_3_2   -0.373537089999995 	(obj:0)
prodt_x_8_2_t_x_9_3_more_irrev1_3_2    -1.33335954957968 	(obj:0)
prodt_x_11_2_t_x_13_3_more_irrev1_3_2      -2.846241202263 	(obj:0)
prodt_x_12_2_t_x_14_3_more_irrev1_3_2          -0.32706047 	(obj:0)
prodt_x_13_3_t_x_17_2_more_irrev1_3_2   -0.857331443847172 	(obj:0)
prodt_x_14_3_t_x_15_2_more_irrev1_3_2    -2.20711090077687 	(obj:0)
prodt_x_16_2_t_x_20_3_more_irrev1_3_2   -0.579827473674574 	(obj:0)
prodt_x_17_3_t_x_18_2_more_irrev1_3_2    -0.14080589749321 	(obj:0)
prodt_x_18_3_t_x_19_2_more_irrev1_3_2     1.74837435765619 	(obj:0)
prodt_x_1_2_t_x_2_3_more_irrev2_3_2     1.26822016849129 	(obj:0)
prodt_x_2_3_t_x_3_2_more_irrev2_3_2    0.664996743761603 	(obj:0)
prodt_x_3_2_t_x_4_3_more_irrev2_3_2     3.53168771815403 	(obj:0)
prodt_x_6_3_t_x_7_2_more_irrev2_3_2     3.75399620626488 	(obj:0)
prodt_x_7_3_t_x_10_2_more_irrev2_3_2    0.373537089999994 	(obj:0)
prodt_x_8_2_t_x_9_3_more_irrev2_3_2     1.33335954957968 	(obj:0)
prodt_x_11_2_t_x_13_3_more_irrev2_3_2       2.846241202263 	(obj:0)
prodt_x_12_2_t_x_14_3_more_irrev2_3_2           0.32706047 	(obj:0)
prodt_x_13_3_t_x_17_2_more_irrev2_3_2    0.857331443847172 	(obj:0)
prodt_x_14_3_t_x_15_2_more_irrev2_3_2     2.20711090077687 	(obj:0)
prodt_x_16_2_t_x_20_3_more_irrev2_3_2    0.579827473674575 	(obj:0)
prodt_x_17_3_t_x_18_2_more_irrev2_3_2     0.14080589749321 	(obj:0)
prodt_x_18_3_t_x_19_2_more_irrev2_3_2     1.74837435765619 	(obj:0)
SCIP Status        : solving was interrupted [time limit reached]
Total Time         :    3600.00
  solving          :    3600.00
  presolving       :       0.04 (included in solving)
  reading          :       0.00
  copying          :       1.07 (116 #copies) (minimal 0.00, maximal 0.02, average 0.01)
Original Problem   :
  Problem name     : ../instances/Pot4/Pot4_T_20B_alpha=12.txt.spa
  Variables        : 101 (100 binary, 0 integer, 0 implicit integer, 1 continuous)
  Constraints      : 193 initial, 193 maximal
  Objective sense  : maximize
Presolved Problem  :
  Problem name     : t_../instances/Pot4/Pot4_T_20B_alpha=12.txt.spa
  Variables        : 590 (92 binary, 0 integer, 16 implicit integer, 482 continuous)
  Constraints      : 2015 initial, 6127 maximal
Presolvers         :   ExecTime  SetupTime  Calls  FixedVars   AggrVars   ChgTypes  ChgBounds   AddHoles    DelCons    AddCons   ChgSides   ChgCoefs
  boundshift       :       0.00       0.00      0          0          0          0          0          0          0          0          0          0
  components       :       0.00       0.00      1          0          0          0          0          0          0          0          0          0
  convertinttobin  :       0.00       0.00      0          0          0          0          0          0          0          0          0          0
  domcol           :       0.00       0.00      1          0          0          0          0          0          0          0          0          0
  dualagg          :       0.00       0.00      0          0          0          0          0          0          0          0          0          0
  dualinfer        :       0.00       0.00      0          0          0          0          0          0          0          0          0          0
  gateextraction   :       0.00       0.00      3          0          0          0          0          0        108         34          0          0
  implfree         :       0.00       0.00      0          0          0          0          0          0          0          0          0          0
  implics          :       0.00       0.00      4          0          0          0          0          0          0          0          0          0
  inttobinary      :       0.00       0.00      0          0          0          0          0          0          0          0          0          0
  redvub           :       0.00       0.00      0          0          0          0          0          0          0          0          0          0
  stuffing         :       0.00       0.00      1          0          0          0          0          0          0          0          0          0
  trivial          :       0.00       0.00      7          0          0          0          0          0          0          0          0          0
  tworowbnd        :       0.00       0.00      0          0          0          0          0          0          0          0          0          0
  dualfix          :       0.00       0.00      7          4          0          0          0          0          0          0          0          0
  genvbounds       :       0.00       0.00      0          0          0          0          0          0          0          0          0          0
  probing          :       0.03       0.00      1          0          0          0          4          0          0          0          0          0
  pseudoobj        :       0.00       0.00      0          0          0          0          0          0          0          0          0          0
  varbound         :       0.00       0.00      9          0          0          0          0          0         28         28          0          0
  setppc           :       0.01       0.00     12          0          0          0          0          0          0          0          0          0
  and              :       0.00       0.00      4          0         12          0          0          0         12          0          0          0
  linear           :       0.00       0.00      9          3          1          0          4          0          7          0         12         12
  logicor          :       0.00       0.00      7          0          0          0          0          0          0          0          0          0
  bounddisjunction :       0.00       0.00      0          0          0          0          0          0          0          0          0          0
  quadratic        :       0.00       0.00      2          0          0          0          0          0          0       1915          0          0
  root node        :          -          -      -          1          -          -         83          -          -          -          -          -
Constraints        :     Number  MaxNumber  #Separate #Propagate    #EnfoLP    #EnfoPS     #Check   #ResProp    Cutoffs    DomReds       Cuts    Applied      Conss   Children
  integral         :          0          0          0          0    1873007          0     450966          0          0      52798          0          0        183    3713828
  varbound         :        869        869         78   11465373      11613          0     176014    3965164      61150   79161372          0          0          0          0
  setppc           :        110        110         78   11403921      11613          0       1357    2381280      10483    4675061         11          0          0          0
  and              :         22         22     207455    1120456       3149          0       1131     409334          0     111395       3341       3331          0          0
  linear           :        979        979         78   11393740      10440          0       1046    1502093     171687  106165154     497426     497221          0          0
  logicor          :         35+      1351         64    3124870          0          0          0      57017       2081     158680          1          1          0          0
  bounddisjunction :          0+      3203          0    5175944          0          0          0    1032248       2379   10303668          0          0          0          0
  countsols        :          0          0          0          0          1          0     274253          0          0          0          0          0          0          0
Constraint Timings :  TotalTime  SetupTime   Separate  Propagate     EnfoLP     EnfoPS      Check    ResProp    SB-Prop
  integral         :      18.93       0.00       0.00       0.00      18.86       0.00       0.07       0.00       0.00
  varbound         :      60.71       0.00       0.00      59.28       0.03       0.00       0.56       0.76       0.08
  setppc           :      33.92       0.00       0.00      33.30       0.00       0.00       0.00       0.51       0.11
  and              :       0.52       0.00       0.08       0.33       0.00       0.00       0.00       0.11       0.00
  linear           :     172.76       0.00       0.01     171.26       0.29       0.00       0.01       0.83       0.36
  logicor          :      24.81       0.00       0.00      24.77       0.00       0.00       0.00       0.03       0.01
  bounddisjunction :     140.98       0.00       0.00     140.73       0.00       0.00       0.00       0.23       0.02
  countsols        :       0.04       0.00       0.00       0.00       0.00       0.00       0.04       0.00       0.00
Propagators        : #Propagate   #ResProp    Cutoffs    DomReds
  dualfix          :          2          0          0          0
  genvbounds       :          0          0          0          0
  obbt             :          0          0          0          0
  probing          :          0          0          0          0
  pseudoobj        :   12073452          0         24         81
  redcost          :    4161072          0         39     696879
  rootredcost      :          2          0          0          1
  vbounds          :   13337911      11587         40     107794
Propagator Timings :  TotalTime  SetupTime   Presolve  Propagate    ResProp    SB-Prop
  dualfix          :       0.00       0.00       0.00       0.00       0.00       0.00
  genvbounds       :       1.81       0.00       0.00       1.80       0.00       0.01
  obbt             :       0.00       0.00       0.00       0.00       0.00       0.00
  probing          :       0.03       0.00       0.03       0.00       0.00       0.00
  pseudoobj        :       4.15       0.00       0.00       4.15       0.00       0.00
  redcost          :      22.10       0.00       0.00      22.10       0.00       0.00
  rootredcost      :       1.93       0.00       0.00       1.92       0.00       0.01
  vbounds          :       4.34       0.00       0.00       4.34       0.00       0.00
Conflict Analysis  :       Time      Calls    Success    DomReds  Conflicts   Literals    Reconvs ReconvLits   LP Iters
  propagation      :       2.77      79412      78893          -     685883       33.5       5637       44.5          -
  infeasible LP    :      17.76     132212     125181          -    1865056       35.9        134       14.3          0
  bound exceed. LP :       0.00          0          0          -          0        0.0          0        0.0          0
  strong branching :       0.00          0          0          -          0        0.0          0        0.0          0
  pseudo solution  :       0.00          0          0          -          0        0.0          0        0.0          -
  applied globally :       4.38          -          -          0     388707       19.8          -          -          -
  applied locally  :          -          -          -          0       2572       37.3          -          -          -
Separators         :   ExecTime  SetupTime      Calls    Cutoffs    DomReds       Cuts    Applied      Conss
  cut pool         :       0.01                    77          -          -       1085          -          -    (maximal pool size: 805)
  cgmip            :       0.00       0.00          0          0          0          0          0          0
  clique           :       0.02       0.00         78          0          0         32         21          0
  closecuts        :       0.00       0.00          0          0          0          0          0          0
  cmir             :       0.04       0.00         10          0          0        283        183          0
  disjunctive      :       0.00       0.00          0          0          0          0          0          0
  eccuts           :       0.00       0.00          0          0          0          0          0          0
  flowcover        :       0.13       0.00         15          0          0        245         19          0
  gomory           :       0.01       0.00         10          0          0          4          4          0
  impliedbounds    :       0.01       0.00         78          0          0        628        133          0
  intobj           :       0.00       0.00          0          0          0          0          0          0
  mcf              :       0.00       0.00          1          0          0          0          0          0
  oddcycle         :       0.00       0.00          0          0          0          0          0          0
  rapidlearning    :       0.00       0.00          0          0          0          0          0          0
  strongcg         :       0.02       0.00         20          0          0          3          2          0
  zerohalf         :       0.00       0.00          0          0          0          0          0          0
Pricers            :   ExecTime  SetupTime      Calls       Vars
  problem variables:       0.00          -          0          0
Branching Rules    :   ExecTime  SetupTime   BranchLP  BranchExt   BranchPS    Cutoffs    DomReds       Cuts      Conss   Children
  allfullstrong    :       0.00       0.00          0          0          0          0          0          0          0          0
  cloud            :       0.00       0.00          0          0          0          0          0          0          0          0
  distribution     :       0.00       0.00          0          0          0          0          0          0          0          0
  fullstrong       :       0.00       0.00          0          0          0          0          0          0          0          0
  inference        :       0.00       0.00          0          0          0          0          0          0          0          0
  leastinf         :       0.00       0.00          0          0          0          0          0          0          0          0
  mostinf          :       0.00       0.00          0          0          0          0          0          0          0          0
  multaggr         :       0.00       0.00          0          0          0          0          0          0          0          0
  nodereopt        :       0.00       0.00          0          0          0          0          0          0          0          0
  pscost           :       0.00       0.00          0          0          0          0          0          0          0          0
  random           :       0.00       0.00          0          0          0          0          0          0          0          0
  relpscost        :      18.04       0.00    1861394          0          0          0      52798          0       -420    3713828
Primal Heuristics  :   ExecTime  SetupTime      Calls      Found       Best
  LP solutions     :       0.00          -          -          1          -
  pseudo solutions :       0.00          -          -          0          -
  strong branching :       0.01          -          -          0          -
  SpaGreedy        :     303.26       0.00     274252          2          1
  actconsdiving    :       0.00       0.00          0          0          0
  bound            :       0.00       0.00          0          0          0
  clique           :       0.00       0.00          0          0          0
  coefdiving       :      34.22       0.00       8792          0          0
  crossover        :       0.72       0.00          0          0          0
  dins             :       0.00       0.00          0          0          0
  distributiondivin:      58.98       0.00       8791          0          0
  dualval          :       0.00       0.00          0          0          0
  feaspump         :      21.39       0.00       1942          0          0
  fixandinfer      :       0.00       0.00          0          0          0
  fracdiving       :      32.01       0.00       8792          0          0
  guideddiving     :      32.81       0.00       8791          0          0
  indicator        :       0.39       0.00          0          0          0
  intdiving        :       0.00       0.00          0          0          0
  intshifting      :       0.56       0.00        201          0          0
  linesearchdiving :      33.55       0.00       8791          0          0
  localbranching   :       0.00       0.00          0          0          0
  mutation         :       0.00       0.00          0          0          0
  nlpdiving        :       0.08       0.00          0          0          0
  objpscostdiving  :      20.66       0.00       2494          0          0
  octane           :       0.00       0.00          0          0          0
  ofins            :       0.00       0.00          0          0          0
  oneopt           :       0.71       0.00          1          0          0
  proximity        :       0.00       0.00          0          0          0
  pscostdiving     :      31.58       0.00       8792          0          0
  randrounding     :       1.50       0.00     175571          0          0
  rens             :       0.32       0.00          1          0          0
  reoptsols        :       0.00       0.00          0          0          0
  rins             :       3.89       0.00        101          0          0
  rootsoldiving    :      21.27       0.00       3171          0          0
  rounding         :       0.81       0.00      18995          0          0
  shiftandpropagate:       0.00       0.00          0          0          0
  shifting         :       1.70       0.00       5896          0          0
  simplerounding   :       0.58       0.00          0          0          0
  subnlp           :       0.64       0.00          0          0          0
  trivial          :       0.00       0.00          2          0          0
  trivialnegation  :       0.00       0.00          0          0          0
  trysol           :       0.74       0.00          0          0          0
  twoopt           :       0.00       0.00          0          0          0
  undercover       :       0.00       0.00          1          0          0
  vbounds          :       0.00       0.00          0          0          0
  veclendiving     :      34.75       0.00       8792          0          0
  zeroobj          :       0.00       0.00          0          0          0
  zirounding       :       0.46       0.00       1000          0          0
  other solutions  :          -          -          -          0          -
Diving Statistics  :      Calls      Nodes   LP Iters Backtracks   MinDepth   MaxDepth   AvgDepth  NLeafSols  MinSolDpt  MaxSolDpt  AvgSolDpt
  actconsdiving    :          0          -          -          -          -          -          -          -          -          -          -
  coefdiving       :       8792      70716     777131      12652         17         43       28.0          -          -          -          -
  distributiondivin:       8791      57681     766740      12153         17         40       26.6          -          -          -          -
  fracdiving       :       8792      68303     806668      13489         17         50       27.7          -          -          -          -
  guideddiving     :       8791      69951     846372      14023         18         51       28.0          -          -          -          -
  linesearchdiving :       8791      57151     838354      13911         17         42       26.3          -          -          -          -
  pscostdiving     :       8792      79280     762688      11228         17         52       29.2          -          -          -          -
  veclendiving     :       8792      64774     775154      16616         17         38       27.0          -          -          -          -
LP                 :       Time      Calls Iterations  Iter/call   Iter/sec  Time-0-It Calls-0-It
  primal LP        :       0.00         13          0       0.00          -       0.00         13
  dual LP          :    1552.75    3981627   65037000      19.23   41885.04      58.21     599277
  lex dual LP      :       0.00          0          0       0.00          -
  barrier LP       :       0.00          0          0       0.00          -       0.00          0
  diving/probing LP:     197.30     265171    7646242      28.84   38754.39
  strong branching :       5.75       5934     197443      33.27   34337.91
    (at root node) :          -         20        989      49.45          -
  conflict analysis:       0.00          0          0       0.00          -
B&B Tree           :
  number of runs   :          1
  nodes            :    3628024 (1856914 internal, 1771110 leaves)
  nodes (total)    :    3628024 (1856914 internal, 1771110 leaves)
  nodes left       :      77962
  max depth        :         36
  max depth (total):         36
  backtracks       :    1024293 (28.2%)
  delayed cutoffs  :       7681
  repropagations   :     160320 (3440951 domain reductions, 6492 cutoffs)
  avg switch length:       6.95
  switching time   :     526.83
Root Node          :
  First LP value   : +3.00000000000000e+00
  First LP Iters   :        371
  First LP Time    :       0.00
  Final Dual Bound : +7.04060911027042e-03
  Final Root Iters :       2661
Solution           :
  Solutions found  :          3 (2 improvements)
  First Solution   : +7.80361684999974e-04   (in run 1, after 1 nodes, 0.05 seconds, depth 0, found by <SpaGreedy>)
  Gap First Sol.   :   infinite
  Gap Last Sol.    :      68.49 %
  Primal Bound     : +8.60285667000179e-04   (in run 1, after 161580 nodes, 143.92 seconds, depth 35, found by <relaxation>)
  Dual Bound       : +1.11683639891727e-03
  Gap              :      29.82 %
  Avg. Gap         :      36.71 % (132173.12 primal-dual integral)
